CPXPARAM_Read_DataCheck                          1
Found incumbent of value 0.000000 after 0.00 sec. (0.08 ticks)
Tried aggregator 1 time.
MIP Presolve modified 1 coefficients.
Reduced MIP has 246 rows, 3015 columns, and 15060 nonzeros.
Reduced MIP has 3015 binaries, 0 generals, 0 SOSs, and 0 indicators.
Presolve time = 0.00 sec. (5.66 ticks)
Tried aggregator 1 time.
Reduced MIP has 246 rows, 3015 columns, and 15060 nonzeros.
Reduced MIP has 3015 binaries, 0 generals, 0 SOSs, and 0 indicators.
Presolve time = 0.02 sec. (6.72 ticks)
Probing time = 0.00 sec. (1.99 ticks)
Clique table members: 5294.
MIP emphasis: balance optimality and feasibility.
MIP search method: dynamic search.
Parallel mode: deterministic, using up to 4 threads.
Root relaxation solution time = 0.02 sec. (11.93 ticks)

        Nodes                                         Cuts/
   Node  Left     Objective  IInf  Best Integer    Best Bound    ItCnt     Gap

*     0+    0                            0.0000    18877.0000              --- 
      0     0     4049.0451    15        0.0000     4049.0451      448     --- 
      0     0     3818.3046   212        0.0000     Cuts: 161      753     --- 
*     0+    0                         3608.0000     3818.3046             5.83%
      0     0     3725.4245   332     3608.0000     Cuts: 161     1142    3.25%
      0     0     3673.4155   464     3608.0000     Cuts: 161     1539    1.81%
*     0+    0                         3616.0000     3673.4155             1.59%
*     0+    0                         3625.0000     3673.4155             1.34%
      0     0     3660.2694   550     3625.0000      Cuts: 66     1733    0.97%
*     0+    0                         3626.0000     3660.2694             0.95%
      0     0     3657.9085   521     3626.0000      Cuts: 68     1818    0.88%
      0     0     3656.5374   461     3626.0000      Cuts: 40     1874    0.84%
*     0+    0                         3639.0000     3656.5374             0.48%
      0     0     3655.0631   396     3639.0000      Cuts: 31     1933    0.44%
      0     0     3654.5438   551     3639.0000      Cuts: 20     1985    0.43%
*     0+    0                         3640.0000     3654.5438             0.40%
      0     0     3653.9447   439     3640.0000      Cuts: 25     2032    0.38%
      0     0     3653.7678   531     3640.0000      Cuts: 18     2090    0.38%
*     0+    0                         3645.0000     3653.7678             0.24%
      0     0     3653.6631   573     3645.0000      Cuts: 17     2121    0.24%
*     0+    0                         3646.0000     3653.6631             0.21%

Repeating presolve.
Tried aggregator 1 time.
MIP Presolve eliminated 3 rows and 1091 columns.
MIP Presolve modified 12 coefficients.
Reduced MIP has 243 rows, 1924 columns, and 9232 nonzeros.
Reduced MIP has 1924 binaries, 0 generals, 0 SOSs, and 0 indicators.
Presolve time = 0.00 sec. (3.97 ticks)
Probing time = 0.00 sec. (1.76 ticks)
Tried aggregator 1 time.
Reduced MIP has 243 rows, 1924 columns, and 9232 nonzeros.
Reduced MIP has 1924 binaries, 0 generals, 0 SOSs, and 0 indicators.
Presolve time = 0.02 sec. (4.15 ticks)
Represolve time = 0.03 sec. (21.98 ticks)
Probing time = 0.00 sec. (1.73 ticks)
Clique table members: 2351.
MIP emphasis: balance optimality and feasibility.
MIP search method: dynamic search.
Parallel mode: deterministic, using up to 4 threads.
Root relaxation solution time = 0.08 sec. (71.72 ticks)

        Nodes                                         Cuts/
   Node  Left     Objective  IInf  Best Integer    Best Bound    ItCnt     Gap

*     0+    0                         3646.0000     3653.5622             0.21%
      0     0     3653.6631   571     3646.0000     3653.5622     3432    0.21%
      0     0     3653.4550   500     3646.0000      Cuts: 13     3484    0.17%
      0     0     3653.4280   505     3646.0000       Cuts: 6     3495    0.17%
*     0+    0                         3652.0000     3652.3175             0.01%
      0     0        cutoff           3652.0000     3652.0000     3516    0.00%
Elapsed time = 2.89 sec. (1444.76 ticks, tree = 0.01 MB, solutions = 10)

Clique cuts applied:  349
Cover cuts applied:  46
Flow cuts applied:  7
Mixed integer rounding cuts applied:  26
Zero-half cuts applied:  26

Root node processing (before b&c):
  Real time             =    2.89 sec. (1445.10 ticks)
Parallel b&c, 4 threads:
  Real time             =    0.00 sec. (0.00 ticks)
  Sync time (average)   =    0.00 sec.
  Wait time (average)   =    0.00 sec.
                          ------------
Total (root+branch&cut) =    2.89 sec. (1445.10 ticks)
